SystemName            (NiO) Face centered cubic  structure

SystemLabel      NiO

NumberOfSpecies 2
NumberOfAtoms   8

%block ChemicalSpeciesLabel
  1  28  Ni
  2  8   O
%endblock ChemicalSpeciesLabel

%block PS.lmax
   Ni    3
   O     3
%endblock PS.lmax

PAO.BasisType    split
PAO.SplitNorm    0.25
PAO.BasisSizes   DZP

LatticeConstant 4.168 Ang

%block LatticeVectors
 1.000000 0.000000 0.000000
 0.000000 1.000000 0.000000
 0.000000 0.000000 1.000000
%endblock LatticeVectors

AtomicCoordinatesFormat  Fractional
%block  AtomicCoordinatesAndAtomicSpecies
  0.00 0.00 0.00 1 Ni
  0.00 0.50 0.50 1 Ni
  0.50 0.00 0.50 1 Ni
  0.50 0.50 0.00 1 Ni
  0.50 0.00 0.00 2 O
  0.50 0.50 0.50 2 O
  0.00 0.00 0.50 2 O
  0.00 0.50 0.00 2 O
%endblock  AtomicCoordinatesAndAtomicSpecies


%block kgrid_Monkhorst_Pack
   6  0   0  0.5
   0  6   0  0.5
   0  0   6  0.5
%endblock kgrid_Monkhorst_Pack

%block XC.cocktail                  # Perdew-Burke-Ernzerhof SOL functional taken from the libxc library
2
GGA LIBXC-0116-GGA_X_PBE_SOL  1.0  0.0
GGA LIBXC-0133-GGA_C_PBE_SOL  0.0  1.0
%endblock XC.cocktail

WriteCoorStep           .true.        #  Write the atomic coordinates to 
MeshCutoff             600 Ry      # Defines the plane wave cutoff for the grid
DM.NumberPulay         3           # It controls the Pulay convergence 
                                   #   accelerator.
DM.UseSaveDM           .true.      # Use the Density Matrix from the DM file 
                                   #   if found
DM.Tolerance           1.d-4       # Tolerance in maximum difference
                                   # between input and output DM
MaxSCFIterations       700         # Maximum number of SCF Iterations
ElectronicTemperature  0.075 eV    # Electronic Temperature for the smearing
                                   #   of the Fermi-Dirac occupation function
SCF.MixAfterConvergence .false.    # Logical variable to indicate whether mixing
                                   #   is done in the last SCF cycle 
                                   #   (after convergence has been achieved) 
                                   #   or not. 
                                   #   Not mixing after convergence improves 
                                   #   the quality of the final Kohn-Sham 
                                   #   energy and of the forces when mixing 
                                   #   the DM.
				   # Molecular Dynamic or Relaxation variables


MD.TypeOfRun            cg          # Type of dynamics:
                                    #   - CG
                                    #   - Verlet
                                    #   - Nose
                                    #   - Parrinello-Rahman
                                    #   - Nose-Parrinello-Rahman
                                    #   - Anneal

MD.VariableCell         .true.      # The lattice is relaxed together with
                                    # the atomic coordinates?
MD.NumCGsteps            0          # Number of CG steps for
                                    #   coordinate optimization
MD.MaxCGDispl           0.05 Bohr    # Maximum atomic displacement
                                    #   in one CG step
MD.MaxForceTol         0.01 eV/Ang  # Tolerance in the maximum
                                    #   atomic force
MD.MaxStressTol        0.0001 eV/Ang**3
                                    # Tolerance in the maximum
                                    #   stress in a MD.VariableCell CG optimi.

MD.UseSaveXV           .true.      # Instructs Siesta to read the 
                                    #   atomic positions and velocities stored
                                    #   in file SystemLabel.XV by a 
                                    #   previous run.
MD.UseSaveCG           .true.      # Instructs to read the conjugate-gradient 
                                    #   hystory information stored in file 

%block ProjectedDensityOfStates
  -70.00  5.00  0.150 3000  eV
%endblock ProjectedDensityOfStates

%PDOS.kgrid_Monkhorst_Pack
    60  0   0   0.5
    0   60  0   0.5
    0   0   60  0.5
%end PDOS.kgrid_Monkhorst_Pack


BandLinesScale ReciprocalLatticeVectors
%block BandLines
  1  0.000 0.000 0.00 \Gamma
  40 0.500 0.000 0.50 X
  40 0.500 0.250 0.75 W
  40 0.375 0.375 0.75 K
  40 0.000 0.000 0.00 \Gamma
  40 0.500 0.500 0.50 L
  40 0.500 0.250 0.75 W
  40 0.500 0.500 0.50 L
  40 0.375 0.375 0.75 K
  40 0.500 0.000 0.50 X
%endblock BandLines
                                                                                    
